outputs/case_106.model.txt
investment_in_single_company_stock_bonds_warrants = True
central_bank_approval_obtained = True
net_asset_value = 100
engages_in_foreign_securities_business = False
other_laws_or_authority_provisions_apply = True
investment_in_single_company_bonds = True
performance_fee_regulated_exception = False
self_or_other_client_opposite_trading = False
required_retention_period = 0
profit_loss_sharing_agreement_with_client = False
keeps_confidential = False
control_records_retention_period = 0
delegation_or_transfer_of_full_discretionary_contract = False
commissioned_to_broker = True
investment_in_trust_and_special_purpose_company_securities = True
trading_through_central_market = False
not_intentional_opposite_trading = False
engages_in_securities_investment = True
regulatory_exception_for_delegation_or_transfer = False
reasonable_explanation_provided = False
business_termination_handling_compliance = True
conflict_prevention_policy_defined = True
meets_diversification_ratio = True
internal_control_system_executed_flag = True
complies_with_law = True
confidentiality_compliance = True
full_discretionary_investment_operated_according_to_rules = True
full_discretionary_investment_investment_decision_compliance = True
control_operations_recorded = True
investment_decision_recorded = True
foreign_securities_business_compliance = True
conflict_prevention_policy_executed = True
complies_with_orders = True
prohibited_behaviors_compliance = True
operates_according_to_operating_rules = True
business_terminated_properly = True
complies_with_contracts = True
internal_control_established_and_executed = True
prohibited_business_activities_violated = False
full_discretionary_investment_diversification_compliance = True
investment_diversification_ratio_compliance = True
prohibited_behaviors_violated = False
unauthorized_trade_order_account_change = False
internal_control_system_executed = True
using_client_account_for_self_or_others = False
monthly_review_submitted = True
prohibited_business_activities_compliance = True
business_scope_during_termination_properly_handled = True
investment_decision_based_on_analysis = True
investment_decision_record_compliance = True
conflict_of_interest_prevention_measures_executed = True
penalty = False
acts_in_good_faith = True
other_behaviors_affecting_business_or_client_rights = False
investment_decision_has_reasonable_basis = True
internal_control_system_defined = True
insider_trading_for_self_or_others = False
damaging_client_interests_trading = False
securities_brokerage_commissioned = True
internal_control_system_established = True
fiduciary_duty_compliance = True